2 62 22 39 41 100 92 6 78 96 7 34 58 59 19 18 32 63 85 28 66 21 81 77 87 10 
75 95 40 1 12 49 88 80 50 4 73 20 48 57 44 45 71 76 46 52 31 9 11 5 8 29 33 
67 89 74 54 97 69 64 42 35 38 53 27 82 84 23 98 61 65 15 24 13 25 17 16 14 94 3 91 
51 36 30 90 99 70 72 68 47 55 56 37 93 60 83 26 86 43 79 

